NAME : census.pruned_local_4.-39061512.tour
COMMENT : Length = -39061512
TYPE : TOUR
DIMENSION : 68
TOUR_SECTION
65
62
60
58
57
43
51
45
29
48
47
49
37
33
27
34
52
53
55
59
61
64
66
54
1
3
50
39
2
4
6
7
10
11
12
56
41
40
42
44
46
31
28
25
23
21
19
17
18
20
22
24
26
30
35
36
38
5
16
14
13
15
67
63
8
9
32
68
-1
EOF
